p cnf 300 616
1 -2 0
2 -1 0
3 4 0
5 4 0
-3 -5 -4 0
-6 4 -7 0
6 -4 -7 0
7 -4 -6 0
6 4 7 0
-7 0
8 9 0
10 9 0
-8 -10 -9 0
-5 9 -11 0
5 -9 -11 0
11 -9 -5 0
5 9 11 0
-11 0
12 13 0
14 13 0
-12 -14 -13 0
-10 13 -15 0
10 -13 -15 0
15 -13 -10 0
10 13 15 0
-15 0
16 17 0
18 17 0
-16 -18 -17 0
-14 17 -19 0
14 -17 -19 0
19 -17 -14 0
14 17 19 0
-19 0
20 21 0
22 21 0
-20 -22 -21 0
-18 21 -23 0
18 -21 -23 0
23 -21 -18 0
18 21 23 0
-23 0
24 25 0
26 25 0
-24 -26 -25 0
-22 25 -27 0
22 -25 -27 0
27 -25 -22 0
22 25 27 0
-27 0
28 29 0
30 29 0
-28 -30 -29 0
-26 29 -31 0
26 -29 -31 0
31 -29 -26 0
26 29 31 0
-31 0
32 33 0
34 33 0
-32 -34 -33 0
-30 33 -35 0
30 -33 -35 0
35 -33 -30 0
30 33 35 0
-35 0
20 36 0
24 36 0
28 36 0
32 36 0
37 36 0
-38 0
-34 36 -39 0
34 -36 -39 0
39 -36 -34 0
34 36 39 0
-39 0
40 41 0
42 41 0
-40 -42 -41 0
-43 41 -44 0
43 -41 -44 0
44 -41 -43 0
43 41 44 0
-44 0
45 46 0
47 46 0
-45 -47 -46 0
-42 46 -48 0
42 -46 -48 0
48 -46 -42 0
42 46 48 0
-48 0
49 50 0
51 50 0
-49 -51 -50 0
-47 50 -52 0
47 -50 -52 0
52 -50 -47 0
47 50 52 0
-52 0
53 54 0
55 54 0
-53 -55 -54 0
-51 54 -56 0
51 -54 -56 0
56 -54 -51 0
51 54 56 0
-56 0
57 58 0
59 58 0
-57 -59 -58 0
-55 58 -60 0
55 -58 -60 0
60 -58 -55 0
55 58 60 0
-60 0
61 62 0
63 62 0
-61 -63 -62 0
-59 62 -64 0
59 -62 -64 0
64 -62 -59 0
59 62 64 0
-64 0
65 66 0
67 66 0
-65 -67 -66 0
-63 66 -68 0
63 -66 -68 0
68 -66 -63 0
63 66 68 0
-68 0
69 70 0
71 70 0
-69 -71 -70 0
-67 70 -72 0
67 -70 -72 0
72 -70 -67 0
67 70 72 0
-72 0
73 74 0
75 74 0
-73 -75 -74 0
-71 74 -76 0
71 -74 -76 0
76 -74 -71 0
71 74 76 0
-76 0
65 77 0
69 77 0
73 77 0
78 77 0
-79 0
-75 77 -80 0
75 -77 -80 0
80 -77 -75 0
75 77 80 0
-80 0
81 82 0
83 82 0
-81 -83 -82 0
-84 82 -85 0
84 -82 -85 0
85 -82 -84 0
84 82 85 0
-85 0
86 87 0
88 87 0
-86 -88 -87 0
-83 87 -89 0
83 -87 -89 0
89 -87 -83 0
83 87 89 0
-89 0
90 91 0
92 91 0
-90 -92 -91 0
-88 91 -93 0
88 -91 -93 0
93 -91 -88 0
88 91 93 0
-93 0
94 95 0
96 95 0
-94 -96 -95 0
-92 95 -97 0
92 -95 -97 0
97 -95 -92 0
92 95 97 0
-97 0
98 99 0
100 99 0
-98 -100 -99 0
-96 99 -101 0
96 -99 -101 0
101 -99 -96 0
96 99 101 0
-101 0
102 103 0
104 103 0
-102 -104 -103 0
-100 103 -105 0
100 -103 -105 0
105 -103 -100 0
100 103 105 0
-105 0
106 107 0
108 107 0
-106 -108 -107 0
-104 107 -109 0
104 -107 -109 0
109 -107 -104 0
104 107 109 0
-109 0
110 111 0
112 111 0
-110 -112 -111 0
-108 111 -113 0
108 -111 -113 0
113 -111 -108 0
108 111 113 0
-113 0
114 115 0
116 115 0
-114 -116 -115 0
-112 115 -117 0
112 -115 -117 0
117 -115 -112 0
112 115 117 0
-117 0
118 119 0
120 119 0
-118 -120 -119 0
-116 119 -121 0
116 -119 -121 0
121 -119 -116 0
116 119 121 0
-121 0
102 122 0
106 122 0
110 122 0
114 122 0
118 122 0
123 122 0
-124 0
-120 122 -125 0
120 -122 -125 0
125 -122 -120 0
120 122 125 0
-125 0
126 127 0
128 127 0
-126 -128 -127 0
-129 127 -130 0
129 -127 -130 0
130 -127 -129 0
129 127 130 0
-130 0
10 131 0
132 131 0
-10 -132 -131 0
-128 131 -133 0
128 -131 -133 0
133 -131 -128 0
128 131 133 0
-133 0
134 135 0
136 135 0
-134 -136 -135 0
-137 135 -138 0
137 -135 -138 0
138 -135 -137 0
137 135 138 0
-138 0
139 140 0
141 140 0
-139 -141 -140 0
-136 140 -142 0
136 -140 -142 0
142 -140 -136 0
136 140 142 0
-142 0
143 144 0
145 144 0
-143 -145 -144 0
-141 144 -146 0
141 -144 -146 0
146 -144 -141 0
141 144 146 0
-146 0
147 148 0
149 148 0
-147 -149 -148 0
-145 148 -150 0
145 -148 -150 0
150 -148 -145 0
145 148 150 0
-150 0
151 152 0
153 152 0
-151 -153 -152 0
-149 152 -154 0
149 -152 -154 0
154 -152 -149 0
149 152 154 0
-154 0
139 155 0
143 155 0
147 155 0
151 155 0
156 155 0
-157 0
-153 155 -158 0
153 -155 -158 0
158 -155 -153 0
153 155 158 0
-158 0
159 160 0
161 160 0
-159 -161 -160 0
-162 160 -163 0
162 -160 -163 0
163 -160 -162 0
162 160 163 0
-163 0
164 165 0
166 165 0
-164 -166 -165 0
-161 165 -167 0
161 -165 -167 0
167 -165 -161 0
161 165 167 0
-167 0
168 169 0
170 169 0
-168 -170 -169 0
-166 169 -171 0
166 -169 -171 0
171 -169 -166 0
166 169 171 0
-171 0
172 173 0
174 173 0
-172 -174 -173 0
-170 173 -175 0
170 -173 -175 0
175 -173 -170 0
170 173 175 0
-175 0
176 177 0
178 177 0
-176 -178 -177 0
-174 177 -179 0
174 -177 -179 0
179 -177 -174 0
174 177 179 0
-179 0
180 181 0
182 181 0
-180 -182 -181 0
-178 181 -183 0
178 -181 -183 0
183 -181 -178 0
178 181 183 0
-183 0
184 185 0
186 185 0
-184 -186 -185 0
-182 185 -187 0
182 -185 -187 0
187 -185 -182 0
182 185 187 0
-187 0
188 189 0
190 189 0
-188 -190 -189 0
-186 189 -191 0
186 -189 -191 0
191 -189 -186 0
186 189 191 0
-191 0
192 193 0
194 193 0
-192 -194 -193 0
-190 193 -195 0
190 -193 -195 0
195 -193 -190 0
190 193 195 0
-195 0
196 197 0
198 197 0
-196 -198 -197 0
-194 197 -199 0
194 -197 -199 0
199 -197 -194 0
194 197 199 0
-199 0
200 201 0
202 201 0
-200 -202 -201 0
-198 201 -203 0
198 -201 -203 0
203 -201 -198 0
198 201 203 0
-203 0
184 204 0
188 204 0
192 204 0
196 204 0
200 204 0
205 204 0
-206 0
-202 204 -207 0
202 -204 -207 0
207 -204 -202 0
202 204 207 0
-207 0
208 209 0
210 209 0
-208 -210 -209 0
-211 209 -212 0
211 -209 -212 0
212 -209 -211 0
211 209 212 0
-212 0
213 214 0
215 214 0
-213 -215 -214 0
-210 214 -216 0
210 -214 -216 0
216 -214 -210 0
210 214 216 0
-216 0
217 218 0
219 218 0
-217 -219 -218 0
-215 218 -220 0
215 -218 -220 0
220 -218 -215 0
215 218 220 0
-220 0
221 222 0
223 222 0
-221 -223 -222 0
-219 222 -224 0
219 -222 -224 0
224 -222 -219 0
219 222 224 0
-224 0
225 226 0
227 226 0
-225 -227 -226 0
-223 226 -228 0
223 -226 -228 0
228 -226 -223 0
223 226 228 0
-228 0
229 230 0
231 230 0
-229 -231 -230 0
-227 230 -232 0
227 -230 -232 0
232 -230 -227 0
227 230 232 0
-232 0
229 233 0
234 233 0
-229 -234 -233 0
-231 233 -235 0
231 -233 -235 0
235 -233 -231 0
231 233 235 0
-235 0
236 237 0
238 237 0
-236 -238 -237 0
-239 237 -240 0
239 -237 -240 0
240 -237 -239 0
239 237 240 0
-240 0
241 242 0
243 242 0
-241 -243 -242 0
-238 242 -244 0
238 -242 -244 0
244 -242 -238 0
238 242 244 0
-244 0
245 246 0
247 246 0
-245 -247 -246 0
-243 246 -248 0
243 -246 -248 0
248 -246 -243 0
243 246 248 0
-248 0
249 250 0
251 250 0
-249 -251 -250 0
-247 250 -252 0
247 -250 -252 0
252 -250 -247 0
247 250 252 0
-252 0
253 254 0
255 254 0
-253 -255 -254 0
-251 254 -256 0
251 -254 -256 0
256 -254 -251 0
251 254 256 0
-256 0
257 258 0
259 258 0
-257 -259 -258 0
-255 258 -260 0
255 -258 -260 0
260 -258 -255 0
255 258 260 0
-260 0
261 262 0
263 262 0
-261 -263 -262 0
-259 262 -264 0
259 -262 -264 0
264 -262 -259 0
259 262 264 0
-264 0
265 266 0
267 266 0
-265 -267 -266 0
-263 266 -268 0
263 -266 -268 0
268 -266 -263 0
263 266 268 0
-268 0
269 270 0
271 270 0
-269 -271 -270 0
-267 270 -272 0
267 -270 -272 0
272 -270 -267 0
267 270 272 0
-272 0
273 274 0
275 274 0
-273 -275 -274 0
-271 274 -276 0
271 -274 -276 0
276 -274 -271 0
271 274 276 0
-276 0
277 278 0
279 278 0
-277 -279 -278 0
-275 278 -280 0
275 -278 -280 0
280 -278 -275 0
275 278 280 0
-280 0
261 281 0
265 281 0
269 281 0
273 281 0
277 281 0
282 281 0
-283 0
-279 281 -284 0
279 -281 -284 0
284 -281 -279 0
279 281 284 0
-284 0
285 286 0
287 286 0
-285 -287 -286 0
-288 286 -289 0
288 -286 -289 0
289 -286 -288 0
288 286 289 0
-289 0
290 291 0
292 291 0
-290 -292 -291 0
-287 291 -293 0
287 -291 -293 0
293 -291 -287 0
287 291 293 0
-293 0
294 295 0
296 295 0
-294 -296 -295 0
-292 295 -297 0
292 -295 -297 0
297 -295 -292 0
292 295 297 0
-297 0
67 298 0
299 298 0
-67 -299 -298 0
-296 298 -300 0
296 -298 -300 0
300 -298 -296 0
296 298 300 0
-300 0
1 0
-6 0
-43 0
-84 0
-129 0
-137 0
-162 0
-211 0
-239 0
-288 0
